33D32945 STP File, STP Format Version 1.0

SECTION Comments
Name "cube_n11_d2_s1"
Problem "Euclidean Steiner Tree Problem"
Remark "Generated with STPGenerator. 2 dimensions."
END

SECTION Graph
Nodes 11
END

SECTION Coordinates
DD 0 0.8401877172 0.3943829268
DD 1 0.7830992238 0.7984400335
DD 2 0.9116473579 0.1975513693
DD 3 0.3352227557 0.7682295948
DD 4 0.2777747108 0.5539699558
DD 5 0.4773970519 0.6288709248
DD 6 0.3647844728 0.5134009102
DD 7 0.9522297252 0.9161950680
DD 8 0.6357117280 0.7172969294
DD 9 0.1416025554 0.6069688763
DD 10 0.0163005716 0.2428867706
END
